coords = array2d(1..61, 1..2, [269, 793, 165, 132, 808, 411, 577, 59, 897, 722,
    109, 884, 562, 329, 176, 470, 465, 941, 431, 17, 744, 473, 200,
    433, 716, 694, 442, 536, 565, 964, 88, 249, 464, 249, 918, 928,
    905, 286, 755, 672, 469, 597, 164, 426, 838, 940, 792, 196, 234,
    727, 76, 209, 268, 909, 572, 514, 56, 888, 524, 460, 685, 409,
    908, 878, 785, 179, 539, 684, 403, 171, 396, 331, 540, 139, 746,
    606, 603, 897, 414, 55, 451, 765, 161, 59, 286, 866, 95, 510, 949,
    687, 489, 497, 565, 401, 367, 994, 413, 319, 457, 460, 52, 318,
    169, 628, 934, 838, 628, 634, 344, 375, 866, 588, 642, 832, 157,
    691, 82, 844, 481, 147, 92, 244]);

n = 61;

